NAME : local_6
TYPE : ATSP
DIMENSION : 20
EDGE_WEIGHT_TYPE : EXPLICIT
EDGE_WEIGHT_FORMAT : FULL_MATRIX
EDGE_WEIGHT_SECTION
0 471 10000000 10000000 10000000 10000000 10000000 10000000 581 10000000 779 10000000 780 10000000 475 976 725 10000000 905 10000000 
0 0 10000000 10000000 10000000 10000000 854 10000000 583 10000000 392 749 328 1012 638 10000000 979 10000000 1087 10000000 
0 10000000 0 249 500 739 10000000 592 10000000 313 10000000 10000000 10000000 10000000 10000000 454 905 354 747 730 
0 10000000 249 0 748 968 10000000 356 10000000 521 10000000 10000000 10000000 10000000 10000000 680 10000000 492 982 600 
0 10000000 500 748 0 307 10000000 10000000 10000000 309 10000000 10000000 10000000 10000000 10000000 321 642 470 406 10000000 
0 10000000 739 968 307 0 10000000 10000000 10000000 451 10000000 10000000 10000000 897 10000000 625 834 557 603 10000000 
0 854 10000000 10000000 10000000 10000000 0 10000000 705 10000000 485 757 888 433 10000000 10000000 10000000 1012 10000000 928 
0 10000000 592 356 10000000 10000000 10000000 0 10000000 799 10000000 10000000 10000000 10000000 10000000 10000000 10000000 708 10000000 432 
0 583 10000000 10000000 10000000 10000000 705 10000000 0 10000000 561 10000000 857 10000000 10000000 10000000 10000000 10000000 10000000 10000000 
0 10000000 313 521 309 451 10000000 799 10000000 0 10000000 10000000 10000000 862 10000000 481 878 167 672 780 
0 392 10000000 10000000 10000000 10000000 485 10000000 561 10000000 0 541 425 667 10000000 10000000 10000000 10000000 10000000 10000000 
0 749 10000000 10000000 10000000 10000000 757 10000000 10000000 10000000 541 0 492 670 10000000 10000000 10000000 10000000 10000000 10000000 
0 328 10000000 10000000 10000000 10000000 888 10000000 857 10000000 425 492 0 976 796 10000000 10000000 10000000 10000000 10000000 
0 1061 10000000 10000000 10000000 897 433 10000000 10000000 862 667 670 980 0 10000000 10000000 10000000 759 10000000 897 
0 638 10000000 10000000 10000000 10000000 10000000 10000000 10000000 10000000 10000000 10000000 796 10000000 0 922 475 10000000 676 10000000 
0 10000000 454 680 321 625 10000000 10000000 10000000 481 10000000 10000000 10000000 10000000 922 0 509 632 340 10000000 
0 963 905 10000000 642 834 10000000 10000000 10000000 878 10000000 10000000 10000000 10000000 475 509 0 10000000 247 10000000 
0 10000000 354 492 470 557 1012 708 10000000 167 10000000 10000000 10000000 759 10000000 632 10000000 0 821 625 
0 1072 747 982 406 603 10000000 10000000 10000000 672 10000000 10000000 10000000 10000000 676 340 247 821 0 10000000 
0 10000000 10000000 10000000 10000000 10000000 10000000 10000000 10000000 10000000 10000000 10000000 10000000 10000000 10000000 10000000 10000000 10000000 10000000 0 
EOF